NAME: PointSet_Angle_35_6
TYPE: TSP
COMMENT: Points chosen discrete uniformly at random out of ${0, \ldots, 500}^2$.
DIMENSION: 35
EDGE_WEIGHT_TYPE: EUC_2D
NODE_COORD_SECTION
1 168 223
2 158 299
3 429 214
4 214 449
5 84 77
6 306 467
7 348 226
8 353 109
9 111 375
10 430 172
11 125 4
12 182 50
13 446 443
14 440 240
15 402 278
16 419 70
17 247 76
18 115 422
19 36 75
20 370 120
21 400 175
22 333 247
23 147 185
24 357 259
25 60 286
26 177 432
27 290 106
28 483 482
29 48 168
30 221 196
31 192 139
32 12 439
33 463 374
34 360 499
35 196 476
EOF
